 # Version information for this restart file 
 # current date 2021-09-18 17:25:24.383
 # current working dir /home/lujunbo/WORK/deepmd/c2h6/cp2k_md
 # Program compiled at                              Tue Jun  1 15:18:23 CST 2021
 # Program compiled on                                                       mgr
 # Program compiled for                                                    local
 # Source code revision number                                       git:310b7ab
 &GLOBAL
   PRINT_LEVEL  LOW
   PROJECT_NAME test
   RUN_TYPE  MD
 &END GLOBAL
 &MOTION
   &MD
     ENSEMBLE  NVT
     STEPS  1000
     TIMESTEP     4.9999999999999994E-01
     STEP_START_VAL  500
     TIME_START_VAL     2.4999999999999795E+02
     ECONS_START_VAL    -1.4951470031540616E+01
     TEMPERATURE     5.0000000000000007E+01
     &THERMOSTAT
       TYPE  NOSE
       REGION  GLOBAL
       &NOSE
         LENGTH  3
         TIMECON     4.9999999999999993E+01
         &COORD
              -4.6518334329304173E-01    3.1422679627981331E-01    1.9141917477666544E+00
         &END COORD
         &VELOCITY
               8.7930574794341647E-05   -4.8011595374225600E-04    1.6090362853115410E-04
         &END VELOCITY
         &MASS
               1.4207636828499359E+04    6.7655413469044561E+02    6.7655413469044561E+02
         &END MASS
         &FORCE
               8.7659567780064269E-08   -7.1672549743490741E-08   -3.5287263625841916E-09
         &END FORCE
       &END NOSE
     &END THERMOSTAT
     &AVERAGES  T
       &RESTART_AVERAGES
         ITIMES_START  1
         AVECPU     1.2473863107450311E+00
         AVEHUGONIOT     0.0000000000000000E+00
         AVETEMP_BARO     0.0000000000000000E+00
         AVEPOT    -1.4952069439484577E+01
         AVEKIN     1.4759538954959683E-03
         AVETEMP     4.4387506825830293E+01
         AVEKIN_QM     0.0000000000000000E+00
         AVETEMP_QM     0.0000000000000000E+00
         AVEVOL     6.7483345830899971E+03
         AVECELL_A     1.8897261328856420E+01
         AVECELL_B     1.8897261328856420E+01
         AVECELL_C     1.8897261328856420E+01
         AVEALPHA     9.0000000000000000E+01
         AVEBETA     9.0000000000000000E+01
         AVEGAMMA     9.0000000000000000E+01
         AVE_ECONS     3.3597521602235930E-01
         AVE_PRESS     0.0000000000000000E+00
         AVE_PXX     0.0000000000000000E+00
       &END RESTART_AVERAGES
     &END AVERAGES
   &END MD
   &PRINT
     &TRAJECTORY  SILENT
       &EACH
         MD  1
       &END EACH
     &END TRAJECTORY
     &CELL  SILENT
       &EACH
         MD  1
       &END EACH
     &END CELL
     &VELOCITIES  SILENT
       &EACH
         MD  1
       &END EACH
     &END VELOCITIES
     &FORCES  SILENT
       &EACH
         MD  1
       &END EACH
     &END FORCES
     &RESTART  SILENT
       &EACH
         MD  5
       &END EACH
     &END RESTART
   &END PRINT
 &END MOTION
 &FORCE_EVAL
   METHOD  QS
   &DFT
     BASIS_SET_FILE_NAME /home/lujunbo/bin/cp2k-8.2/data/BASIS_MOLOPT
     POTENTIAL_FILE_NAME /home/lujunbo/bin/cp2k-8.2/data/POTENTIAL
     WFN_RESTART_FILE_NAME ./cp2k-RESTART.wfn
     MULTIPLICITY  1
     CHARGE  0
     &SCF
       MAX_SCF  100
       EPS_SCF     9.9999999999999995E-07
       CHOLESKY  INVERSE_DBCSR
       SCF_GUESS  RESTART
       &OT  T
         MINIMIZER  CG
         PRECONDITIONER  FULL_ALL
       &END OT
       &OUTER_SCF  T
         EPS_SCF     9.9999999999999995E-07
         MAX_SCF  6
       &END OUTER_SCF
     &END SCF
     &QS
       EXTRAPOLATION  ASPC
       METHOD  GPW
     &END QS
     &MGRID
       NGRIDS  4
       CUTOFF     4.0000000000000000E+02
       REL_CUTOFF     5.0000000000000000E+01
     &END MGRID
     &XC
       DENSITY_CUTOFF     1.0000000000000000E-10
       GRADIENT_CUTOFF     1.0000000000000000E-10
       TAU_CUTOFF     1.0000000000000000E-10
       &XC_FUNCTIONAL  NO_SHORTCUT
         &PBE  T
         &END PBE
       &END XC_FUNCTIONAL
     &END XC
     &POISSON
       PERIODIC  XYZ
     &END POISSON
   &END DFT
   &SUBSYS
     &CELL
       A     1.0000000000000002E+01    0.0000000000000000E+00    0.0000000000000000E+00
       B     0.0000000000000000E+00    1.0000000000000002E+01    0.0000000000000000E+00
       C     0.0000000000000000E+00    0.0000000000000000E+00    1.0000000000000002E+01
       PERIODIC  XYZ
       MULTIPLE_UNIT_CELL  1 1 1
     &END CELL
     &COORD
C    4.2155771763072387E+00    4.7141157468505286E+00    5.4760951660824553E+00
C    5.2048871423777250E+00    5.7733280676441385E+00    5.0061417194300732E+00
H    4.7110900493411823E+00    3.8085279351187786E+00    5.8386669959868573E+00
H    3.5341549377248147E+00    4.4007439308166614E+00    4.6624814911995962E+00
H    3.5997142727687459E+00    5.0801050238035002E+00    6.3105907540706401E+00
H    4.7291305719403232E+00    6.6977428232486149E+00    4.6335296730627000E+00
H    5.8486953395678603E+00    5.4021239741880223E+00    4.1970510092404467E+00
H    5.8746936087497819E+00    6.1314525512656344E+00    5.8090054144265322E+00
     &END COORD
     &VELOCITY
           1.3365985860742078E-05   -6.2345357400510053E-05    9.4170998759582038E-05
           1.5623215067304419E-05    9.3411613148278749E-05   -1.1718401369307178E-04
          -1.4117335601057350E-04    1.5818511679361531E-04    6.1391635594823947E-05
          -2.6599143029062137E-04   -6.4318648339094329E-04   -1.7724633630454028E-04
           3.0170180132458585E-05   -6.8268104358325092E-04    4.4151768322314358E-04
           5.2100768983408588E-04    1.9674210425481016E-04    7.8750677847597229E-05
          -3.4198136533902275E-04    8.3851351682140299E-05    1.7352381152118822E-04
          -1.6643868395037031E-04    4.9770520053998011E-04   -3.0100282420451630E-04
     &END VELOCITY
     &KIND C
       BASIS_SET DZVP-MOLOPT-SR-GTH
       POTENTIAL GTH-PBE-q4
       &POTENTIAL
 2 2
  0.3384712400000000E+00 2 -0.8803673979999999E+01  0.1339210850000000E+01
 2
  0.3025757500000000E+00 1  0.9622486650000001E+01
  0.2915069400000000E+00 0
         # Potential name:  GTH-PBE-Q4  for symbol:  C
         # Potential read from the potential filename: /home/lujunbo/bin/cp2k-8.2/data/POTENTIAL
       &END POTENTIAL
     &END KIND
     &KIND H
       BASIS_SET DZVP-MOLOPT-SR-GTH
       POTENTIAL GTH-PBE-q1
       &POTENTIAL
 1
  0.2000000000000000E+00 2 -0.4178900440000000E+01  0.7244633100000000E+00
 0
         # Potential name:  GTH-PBE-Q1  for symbol:  H
         # Potential read from the potential filename: /home/lujunbo/bin/cp2k-8.2/data/POTENTIAL
       &END POTENTIAL
     &END KIND
     &TOPOLOGY
       COORD_FILE_NAME init.xyz
       COORD_FILE_FORMAT  XYZ
       NUMBER_OF_ATOMS  8
       MULTIPLE_UNIT_CELL  1 1 1
     &END TOPOLOGY
   &END SUBSYS
 &END FORCE_EVAL
