&FORCE_EVAL
  METHOD QS
  &DFT
    BASIS_SET_FILE_NAME ./BASIS_SET
    POTENTIAL_FILE_NAME ./POTENTIAL
    WFN_RESTART_FILE_NAME ./lacl3-RESTART.wfn
    UKS  T
    MULTIPLICITY  1
    &MGRID
      CUTOFF 800
      NGRIDS 3
    &END MGRID
    &QS
      EPS_DEFAULT 1.0E-12
    &END QS
    &SCF
      EPS_SCF 1.0E-7
      MAX_SCF 2000
#      SCF_GUESS ATOMIC
      SCF_GUESS RESTART
      &OT
       MINIMIZER CG
       LINESEARCH 3PNT
       PRECONDITIONER FULL_ALL
      &END OT
    &END SCF
    &XC
      &XC_FUNCTIONAL PBE
      &END XC_FUNCTIONAL
    &END XC
    &PRINT
    &END
  &END DFT
  &SUBSYS
    &CELL
      ABC 15.0 15.0 15.0
      PERIODIC NONE
    &END CELL
    &COORD
 La         7.4760714929        7.5133019208        8.0283702954
 Cl         7.1129374367        7.5430874439        5.4616714686
 Cl         7.3324500301        9.7184442245        9.3792958768
 Cl         7.8947950011        5.2777557533        9.2698536694
    &END COORD
    &TOPOLOGY
      &CENTER_COORDINATES
      &END
    &END
    &KIND La
      BASIS_SET CBS
      POTENTIAL GTH-PBE-q11
    &END KIND
    &KIND Cl
      BASIS_SET TZV2P-MOLOPT-GTH
      POTENTIAL GTH-PBE-q7
    &END KIND
  &END SUBSYS
&END FORCE_EVAL
&GLOBAL
  PROJECT lacl3
  RUN_TYPE ENERGY
  PRINT_LEVEL LOW
&END GLOBAL

