 # Version information for this restart file 
 # current date 2021-10-24 12:34:41.130
 # current working dir /home/lujunbo/WORK/deepmd/c2h6/mtd/train_3_sys/cp2k_md/sys_4
 # Program compiled at                              Tue Jun  1 15:18:23 CST 2021
 # Program compiled on                                                       mgr
 # Program compiled for                                                    local
 # Source code revision number                                       git:310b7ab
 &GLOBAL
   PRINT_LEVEL  LOW
   PROJECT_NAME test
   RUN_TYPE  MD
 &END GLOBAL
 &MOTION
   &MD
     ENSEMBLE  NVT
     STEPS  3000
     TIMESTEP     4.9999999999999994E-01
     STEP_START_VAL  2995
     TIME_START_VAL     1.4974999999999170E+03
     ECONS_START_VAL    -1.4949010286109107E+01
     TEMPERATURE     5.0000000000000007E+01
     &THERMOSTAT
       TYPE  NOSE
       REGION  GLOBAL
       &NOSE
         LENGTH  3
         TIMECON     4.9999999999999993E+01
         &COORD
               5.8177732690089750E+00    2.1159330484102195E+01    4.2620600712081625E+01
         &END COORD
         &VELOCITY
               1.5711296910016182E-04    7.0479522270952005E-05   -1.3329138291839424E-04
         &END VELOCITY
         &MASS
               1.4207636828499359E+04    6.7655413469044561E+02    6.7655413469044561E+02
         &END MASS
         &FORCE
               2.2014168165774612E-07    2.8433413084841621E-07   -2.2907269234087864E-07
         &END FORCE
       &END NOSE
     &END THERMOSTAT
     &AVERAGES  T
       &RESTART_AVERAGES
         ITIMES_START  1
         AVECPU     1.3524595046406613E+00
         AVEHUGONIOT     0.0000000000000000E+00
         AVETEMP_BARO     0.0000000000000000E+00
         AVEPOT    -1.4950687916223620E+01
         AVEKIN     2.0262352711936725E-03
         AVETEMP     6.0936545650448508E+01
         AVEKIN_QM     0.0000000000000000E+00
         AVETEMP_QM     0.0000000000000000E+00
         AVEVOL     6.7483345830899962E+03
         AVECELL_A     1.8897261328856395E+01
         AVECELL_B     1.8897261328856395E+01
         AVECELL_C     1.8897261328856395E+01
         AVEALPHA     9.0000000000000000E+01
         AVEBETA     9.0000000000000000E+01
         AVEGAMMA     9.0000000000000000E+01
         AVE_ECONS     5.7976199896892604E+02
         AVE_PRESS     0.0000000000000000E+00
         AVE_PXX     0.0000000000000000E+00
       &END RESTART_AVERAGES
     &END AVERAGES
   &END MD
   &FREE_ENERGY
     &METADYN
       USE_PLUMED  T
       PLUMED_INPUT_FILE ./plumed.dat
       MIN_DISP     0.0000000000000000E+00
       OLD_HILL_NUMBER  0
       OLD_HILL_STEP  0
       STEP_START_VAL  0
       NHILLS_START_VAL  0
     &END METADYN
   &END FREE_ENERGY
   &PRINT
     &TRAJECTORY  SILENT
       &EACH
         MD  1
       &END EACH
     &END TRAJECTORY
     &CELL  SILENT
       &EACH
         MD  1
       &END EACH
     &END CELL
     &VELOCITIES  SILENT
       &EACH
         MD  1
       &END EACH
     &END VELOCITIES
     &FORCES  SILENT
       &EACH
         MD  1
       &END EACH
     &END FORCES
     &RESTART  SILENT
       &EACH
         MD  5
       &END EACH
     &END RESTART
   &END PRINT
 &END MOTION
 &FORCE_EVAL
   METHOD  QS
   &DFT
     BASIS_SET_FILE_NAME /home/lujunbo/bin/cp2k-8.2/data/BASIS_MOLOPT
     POTENTIAL_FILE_NAME /home/lujunbo/bin/cp2k-8.2/data/POTENTIAL
     WFN_RESTART_FILE_NAME ./cp2k-RESTART.wfn
     MULTIPLICITY  1
     CHARGE  0
     &SCF
       MAX_SCF  100
       EPS_SCF     9.9999999999999995E-07
       CHOLESKY  INVERSE_DBCSR
       SCF_GUESS  RESTART
       &OT  T
         MINIMIZER  CG
         PRECONDITIONER  FULL_ALL
       &END OT
       &OUTER_SCF  T
         EPS_SCF     9.9999999999999995E-07
         MAX_SCF  6
       &END OUTER_SCF
     &END SCF
     &QS
       EXTRAPOLATION  ASPC
       METHOD  GPW
     &END QS
     &MGRID
       NGRIDS  4
       CUTOFF     4.0000000000000000E+02
       REL_CUTOFF     5.0000000000000000E+01
     &END MGRID
     &XC
       DENSITY_CUTOFF     1.0000000000000000E-10
       GRADIENT_CUTOFF     1.0000000000000000E-10
       TAU_CUTOFF     1.0000000000000000E-10
       &XC_FUNCTIONAL  NO_SHORTCUT
         &PBE  T
         &END PBE
       &END XC_FUNCTIONAL
     &END XC
     &POISSON
       PERIODIC  XYZ
     &END POISSON
   &END DFT
   &SUBSYS
     &CELL
       A     1.0000000000000002E+01    0.0000000000000000E+00    0.0000000000000000E+00
       B     0.0000000000000000E+00    1.0000000000000002E+01    0.0000000000000000E+00
       C     0.0000000000000000E+00    0.0000000000000000E+00    1.0000000000000002E+01
       PERIODIC  XYZ
       MULTIPLE_UNIT_CELL  1 1 1
     &END CELL
     &COORD
C   -2.8053945448003641E+00    1.2766215303247317E+00    2.4717678383930133E-01
C   -1.3486742802877139E+00    1.2860478345786384E+00   -2.5208357051692548E-01
H   -3.0906852181371121E+00    3.4218841221829754E-01    7.4716245339382337E-01
H   -3.0056868679049074E+00    2.0936219432939813E+00    9.5107508895244397E-01
H   -3.4836752600097531E+00    1.4082617621437667E+00   -6.0759846347910207E-01
H   -1.1017810771594170E+00    2.1662220610526863E+00   -8.5974533563690636E-01
H   -6.2826746683358670E-01    1.2510376456216141E+00    5.7417354034158441E-01
H   -1.1730858033014739E+00    4.0017453508975964E-01   -8.7776481021961883E-01
     &END COORD
     &VELOCITY
           4.5436190610084076E-05   -2.8344382655738322E-05    8.8830778262288356E-06
          -3.9342526736154636E-05    3.4327196124857184E-05    7.4728790409330215E-06
          -5.0376780716271722E-04   -1.9554182478238934E-04   -7.2357501930711348E-04
           5.4320355965663844E-04   -3.6653078489015737E-04    4.8446758949441773E-04
           1.1110969061111133E-04    4.3235108143462237E-04    1.4617173658270101E-04
           2.4326030434005099E-05   -5.6983890620535926E-04   -7.0701825905516297E-04
          -3.2870632732068483E-04    7.4910918918295671E-04    2.0771526635321718E-04
           6.8099322921333851E-05   -1.1900434638926974E-04    4.3251639003788781E-04
     &END VELOCITY
     &KIND C
       BASIS_SET DZVP-MOLOPT-SR-GTH
       POTENTIAL GTH-PBE-q4
       &POTENTIAL
 2 2
  0.3384712400000000E+00 2 -0.8803673979999999E+01  0.1339210850000000E+01
 2
  0.3025757500000000E+00 1  0.9622486650000001E+01
  0.2915069400000000E+00 0
         # Potential name:  GTH-PBE-Q4  for symbol:  C
         # Potential read from the potential filename: /home/lujunbo/bin/cp2k-8.2/data/POTENTIAL
       &END POTENTIAL
     &END KIND
     &KIND H
       BASIS_SET DZVP-MOLOPT-SR-GTH
       POTENTIAL GTH-PBE-q1
       &POTENTIAL
 1
  0.2000000000000000E+00 2 -0.4178900440000000E+01  0.7244633100000000E+00
 0
         # Potential name:  GTH-PBE-Q1  for symbol:  H
         # Potential read from the potential filename: /home/lujunbo/bin/cp2k-8.2/data/POTENTIAL
       &END POTENTIAL
     &END KIND
     &TOPOLOGY
       COORD_FILE_NAME init.xyz
       COORD_FILE_FORMAT  XYZ
       NUMBER_OF_ATOMS  8
       MULTIPLE_UNIT_CELL  1 1 1
     &END TOPOLOGY
   &END SUBSYS
 &END FORCE_EVAL
