 # Version information for this restart file 
 # current date 2021-10-24 12:13:44.578
 # current working dir /home/lujunbo/WORK/deepmd/c2h6/mtd/train_3_sys/cp2k_md/sys_4
 # Program compiled at                              Tue Jun  1 15:18:23 CST 2021
 # Program compiled on                                                       mgr
 # Program compiled for                                                    local
 # Source code revision number                                       git:310b7ab
 &GLOBAL
   PRINT_LEVEL  LOW
   PROJECT_NAME test
   RUN_TYPE  MD
 &END GLOBAL
 &MOTION
   &MD
     ENSEMBLE  NVT
     STEPS  3000
     TIMESTEP     4.9999999999999994E-01
     STEP_START_VAL  2000
     TIME_START_VAL     9.9999999999998226E+02
     ECONS_START_VAL    -1.4949010286109107E+01
     TEMPERATURE     5.0000000000000007E+01
     &THERMOSTAT
       TYPE  NOSE
       REGION  GLOBAL
       &NOSE
         LENGTH  3
         TIMECON     4.9999999999999993E+01
         &COORD
               3.8098001730989250E+00    1.5558180121472006E+01    2.5124898674655583E+01
         &END COORD
         &VELOCITY
               1.2579932868073246E-04    4.6751892575471550E-04    1.3848173877133994E-03
         &END VELOCITY
         &MASS
               1.4207636828499359E+04    6.7655413469044561E+02    6.7655413469044561E+02
         &END MASS
         &FORCE
              -1.8596807121641351E-07    9.8294837626561811E-08   -1.5466109461577075E-08
         &END FORCE
       &END NOSE
     &END THERMOSTAT
     &AVERAGES  T
       &RESTART_AVERAGES
         ITIMES_START  1
         AVECPU     1.3970356685379530E+00
         AVEHUGONIOT     0.0000000000000000E+00
         AVETEMP_BARO     0.0000000000000000E+00
         AVEPOT    -1.4950575374603616E+01
         AVEKIN     2.0439759291508933E-03
         AVETEMP     6.1470074223782525E+01
         AVEKIN_QM     0.0000000000000000E+00
         AVETEMP_QM     0.0000000000000000E+00
         AVEVOL     6.7483345830899971E+03
         AVECELL_A     1.8897261328856391E+01
         AVECELL_B     1.8897261328856391E+01
         AVECELL_C     1.8897261328856391E+01
         AVEALPHA     9.0000000000000000E+01
         AVEBETA     9.0000000000000000E+01
         AVEGAMMA     9.0000000000000000E+01
         AVE_ECONS     3.8233369149071194E+02
         AVE_PRESS     0.0000000000000000E+00
         AVE_PXX     0.0000000000000000E+00
       &END RESTART_AVERAGES
     &END AVERAGES
   &END MD
   &FREE_ENERGY
     &METADYN
       USE_PLUMED  T
       PLUMED_INPUT_FILE ./plumed.dat
       MIN_DISP     0.0000000000000000E+00
       OLD_HILL_NUMBER  0
       OLD_HILL_STEP  0
       STEP_START_VAL  0
       NHILLS_START_VAL  0
     &END METADYN
   &END FREE_ENERGY
   &PRINT
     &TRAJECTORY  SILENT
       &EACH
         MD  1
       &END EACH
     &END TRAJECTORY
     &CELL  SILENT
       &EACH
         MD  1
       &END EACH
     &END CELL
     &VELOCITIES  SILENT
       &EACH
         MD  1
       &END EACH
     &END VELOCITIES
     &FORCES  SILENT
       &EACH
         MD  1
       &END EACH
     &END FORCES
     &RESTART  SILENT
       &EACH
         MD  5
       &END EACH
     &END RESTART
   &END PRINT
 &END MOTION
 &FORCE_EVAL
   METHOD  QS
   &DFT
     BASIS_SET_FILE_NAME /home/lujunbo/bin/cp2k-8.2/data/BASIS_MOLOPT
     POTENTIAL_FILE_NAME /home/lujunbo/bin/cp2k-8.2/data/POTENTIAL
     WFN_RESTART_FILE_NAME ./cp2k-RESTART.wfn
     MULTIPLICITY  1
     CHARGE  0
     &SCF
       MAX_SCF  100
       EPS_SCF     9.9999999999999995E-07
       CHOLESKY  INVERSE_DBCSR
       SCF_GUESS  RESTART
       &OT  T
         MINIMIZER  CG
         PRECONDITIONER  FULL_ALL
       &END OT
       &OUTER_SCF  T
         EPS_SCF     9.9999999999999995E-07
         MAX_SCF  6
       &END OUTER_SCF
     &END SCF
     &QS
       EXTRAPOLATION  ASPC
       METHOD  GPW
     &END QS
     &MGRID
       NGRIDS  4
       CUTOFF     4.0000000000000000E+02
       REL_CUTOFF     5.0000000000000000E+01
     &END MGRID
     &XC
       DENSITY_CUTOFF     1.0000000000000000E-10
       GRADIENT_CUTOFF     1.0000000000000000E-10
       TAU_CUTOFF     1.0000000000000000E-10
       &XC_FUNCTIONAL  NO_SHORTCUT
         &PBE  T
         &END PBE
       &END XC_FUNCTIONAL
     &END XC
     &POISSON
       PERIODIC  XYZ
     &END POISSON
   &END DFT
   &SUBSYS
     &CELL
       A     1.0000000000000002E+01    0.0000000000000000E+00    0.0000000000000000E+00
       B     0.0000000000000000E+00    1.0000000000000002E+01    0.0000000000000000E+00
       C     0.0000000000000000E+00    0.0000000000000000E+00    1.0000000000000002E+01
       PERIODIC  XYZ
       MULTIPLE_UNIT_CELL  1 1 1
     &END CELL
     &COORD
C   -2.8198361427326040E+00    1.2864548435830236E+00    2.3907933779076185E-01
C   -1.3488461396041893E+00    1.2796737956707764E+00   -2.4248372645679145E-01
H   -3.4957323416899748E+00    9.5943900781467339E-01   -5.6227281377135685E-01
H   -2.9681667035349566E+00    5.8227733690508976E-01    1.0647818918100709E+00
H   -3.1967698886443769E+00    2.2701154193774391E+00    5.5559753543531065E-01
H   -1.2478966232001023E+00    7.3820578737403919E-01   -1.1909605335641329E+00
H   -9.8901337346129847E-01    2.2942074268510009E+00   -4.3495866560092139E-01
H   -6.4379044078405789E-01    7.9774333550039134E-01    4.4737190993492476E-01
     &END COORD
     &VELOCITY
           6.5531028306800102E-06    1.7159670975190844E-05    3.9148426895582188E-06
          -2.3055441374260577E-06   -8.1016852467582043E-07    2.4901739318020511E-05
           7.7593465927170219E-05   -3.1937291469152641E-04   -9.7463725144295927E-05
          -1.2291574494004547E-04    4.4988710221596476E-05    1.9418355026340966E-04
          -7.3344798263013248E-05    3.5656939959152829E-05   -9.7663317376288909E-05
          -1.3600498027699508E-04    1.2062140369716078E-04   -2.3267419222600146E-04
           1.5985577390548400E-04    1.1931709810445415E-04    5.7666469752325661E-05
           7.3472517708836593E-05   -1.8295705729093933E-04   -4.8377111969202730E-05
     &END VELOCITY
     &KIND C
       BASIS_SET DZVP-MOLOPT-SR-GTH
       POTENTIAL GTH-PBE-q4
       &POTENTIAL
 2 2
  0.3384712400000000E+00 2 -0.8803673979999999E+01  0.1339210850000000E+01
 2
  0.3025757500000000E+00 1  0.9622486650000001E+01
  0.2915069400000000E+00 0
         # Potential name:  GTH-PBE-Q4  for symbol:  C
         # Potential read from the potential filename: /home/lujunbo/bin/cp2k-8.2/data/POTENTIAL
       &END POTENTIAL
     &END KIND
     &KIND H
       BASIS_SET DZVP-MOLOPT-SR-GTH
       POTENTIAL GTH-PBE-q1
       &POTENTIAL
 1
  0.2000000000000000E+00 2 -0.4178900440000000E+01  0.7244633100000000E+00
 0
         # Potential name:  GTH-PBE-Q1  for symbol:  H
         # Potential read from the potential filename: /home/lujunbo/bin/cp2k-8.2/data/POTENTIAL
       &END POTENTIAL
     &END KIND
     &TOPOLOGY
       COORD_FILE_NAME init.xyz
       COORD_FILE_FORMAT  XYZ
       NUMBER_OF_ATOMS  8
       MULTIPLE_UNIT_CELL  1 1 1
     &END TOPOLOGY
   &END SUBSYS
 &END FORCE_EVAL
