 # Version information for this restart file 
 # current date 2021-09-18 17:35:26.893
 # current working dir /home/lujunbo/WORK/deepmd/c2h6/cp2k_md
 # Program compiled at                              Tue Jun  1 15:18:23 CST 2021
 # Program compiled on                                                       mgr
 # Program compiled for                                                    local
 # Source code revision number                                       git:310b7ab
 &GLOBAL
   PRINT_LEVEL  LOW
   PROJECT_NAME test
   RUN_TYPE  MD
 &END GLOBAL
 &MOTION
   &MD
     ENSEMBLE  NVT
     STEPS  1000
     TIMESTEP     4.9999999999999994E-01
     STEP_START_VAL  985
     TIME_START_VAL     4.9249999999999602E+02
     ECONS_START_VAL    -1.4951470031540616E+01
     TEMPERATURE     5.0000000000000007E+01
     &THERMOSTAT
       TYPE  NOSE
       REGION  GLOBAL
       &NOSE
         LENGTH  3
         TIMECON     4.9999999999999993E+01
         &COORD
              -6.7005090810210177E-01   -1.3351182634121701E+00    3.8621092002172590E+00
         &END COORD
         &VELOCITY
               5.9626119318729188E-05   -3.0132578963949884E-05    3.8678871400554895E-05
         &END VELOCITY
         &MASS
               1.4207636828499359E+04    6.7655413469044561E+02    6.7655413469044561E+02
         &END MASS
         &FORCE
               4.2071161269649076E-08   -1.5937929919518234E-07   -2.3313208308540163E-07
         &END FORCE
       &END NOSE
     &END THERMOSTAT
     &AVERAGES  T
       &RESTART_AVERAGES
         ITIMES_START  1
         AVECPU     1.2448757292107113E+00
         AVEHUGONIOT     0.0000000000000000E+00
         AVETEMP_BARO     0.0000000000000000E+00
         AVEPOT    -1.4952049891494722E+01
         AVEKIN     1.4888960363183604E-03
         AVETEMP     4.4776725869763844E+01
         AVEKIN_QM     0.0000000000000000E+00
         AVETEMP_QM     0.0000000000000000E+00
         AVEVOL     6.7483345830899971E+03
         AVECELL_A     1.8897261328856384E+01
         AVECELL_B     1.8897261328856384E+01
         AVECELL_C     1.8897261328856384E+01
         AVEALPHA     9.0000000000000000E+01
         AVEBETA     9.0000000000000000E+01
         AVEGAMMA     9.0000000000000000E+01
         AVE_ECONS     3.3517341839865772E-01
         AVE_PRESS     0.0000000000000000E+00
         AVE_PXX     0.0000000000000000E+00
       &END RESTART_AVERAGES
     &END AVERAGES
   &END MD
   &PRINT
     &TRAJECTORY  SILENT
       &EACH
         MD  1
       &END EACH
     &END TRAJECTORY
     &CELL  SILENT
       &EACH
         MD  1
       &END EACH
     &END CELL
     &VELOCITIES  SILENT
       &EACH
         MD  1
       &END EACH
     &END VELOCITIES
     &FORCES  SILENT
       &EACH
         MD  1
       &END EACH
     &END FORCES
     &RESTART  SILENT
       &EACH
         MD  5
       &END EACH
     &END RESTART
   &END PRINT
 &END MOTION
 &FORCE_EVAL
   METHOD  QS
   &DFT
     BASIS_SET_FILE_NAME /home/lujunbo/bin/cp2k-8.2/data/BASIS_MOLOPT
     POTENTIAL_FILE_NAME /home/lujunbo/bin/cp2k-8.2/data/POTENTIAL
     WFN_RESTART_FILE_NAME ./cp2k-RESTART.wfn
     MULTIPLICITY  1
     CHARGE  0
     &SCF
       MAX_SCF  100
       EPS_SCF     9.9999999999999995E-07
       CHOLESKY  INVERSE_DBCSR
       SCF_GUESS  RESTART
       &OT  T
         MINIMIZER  CG
         PRECONDITIONER  FULL_ALL
       &END OT
       &OUTER_SCF  T
         EPS_SCF     9.9999999999999995E-07
         MAX_SCF  6
       &END OUTER_SCF
     &END SCF
     &QS
       EXTRAPOLATION  ASPC
       METHOD  GPW
     &END QS
     &MGRID
       NGRIDS  4
       CUTOFF     4.0000000000000000E+02
       REL_CUTOFF     5.0000000000000000E+01
     &END MGRID
     &XC
       DENSITY_CUTOFF     1.0000000000000000E-10
       GRADIENT_CUTOFF     1.0000000000000000E-10
       TAU_CUTOFF     1.0000000000000000E-10
       &XC_FUNCTIONAL  NO_SHORTCUT
         &PBE  T
         &END PBE
       &END XC_FUNCTIONAL
     &END XC
     &POISSON
       PERIODIC  XYZ
     &END POISSON
   &END DFT
   &SUBSYS
     &CELL
       A     1.0000000000000002E+01    0.0000000000000000E+00    0.0000000000000000E+00
       B     0.0000000000000000E+00    1.0000000000000002E+01    0.0000000000000000E+00
       C     0.0000000000000000E+00    0.0000000000000000E+00    1.0000000000000002E+01
       PERIODIC  XYZ
       MULTIPLE_UNIT_CELL  1 1 1
     &END CELL
     &COORD
C    4.5781647439239732E+00    4.6223713024110964E+00    5.6956075235320869E+00
C    4.8431905896727034E+00    5.8598278037092770E+00    4.7923988607687527E+00
H    5.4976301314068587E+00    4.0401523351778001E+00    5.9246371715234289E+00
H    3.8675246802318153E+00    3.9219480784623100E+00    5.2434472905891010E+00
H    4.1097122403097481E+00    4.9274431480975318E+00    6.6506670158688843E+00
H    3.9067853149830158E+00    6.3592176432297780E+00    4.5438370411930560E+00
H    5.3068819908024691E+00    5.6581504641883571E+00    3.8197791840265718E+00
H    5.4994053850080693E+00    6.5948261635350605E+00    5.2512428150282355E+00
     &END COORD
     &VELOCITY
           1.2305988993097089E-04   -1.0746836796769765E-04    1.2390719802688285E-04
          -9.5838655388518032E-05    1.0619816794167061E-04   -1.4518796086076730E-04
          -1.2813224992609814E-04    2.5474557431522397E-04    2.6963347401243398E-05
          -2.0219846750907844E-06   -3.3679530442003294E-04   -2.7914442845254362E-04
           4.2279840965145344E-04    8.3483950439096403E-05    1.2497703739079553E-04
          -8.8991539926293334E-05    2.8633707041310499E-04    2.3791899500976419E-05
          -2.6092925390118390E-04   -5.5370219757736820E-04    1.6343598071372084E-04
          -2.7844780004461300E-04    2.3615809854543238E-04    1.9776077641889468E-04
     &END VELOCITY
     &KIND C
       BASIS_SET DZVP-MOLOPT-SR-GTH
       POTENTIAL GTH-PBE-q4
       &POTENTIAL
 2 2
  0.3384712400000000E+00 2 -0.8803673979999999E+01  0.1339210850000000E+01
 2
  0.3025757500000000E+00 1  0.9622486650000001E+01
  0.2915069400000000E+00 0
         # Potential name:  GTH-PBE-Q4  for symbol:  C
         # Potential read from the potential filename: /home/lujunbo/bin/cp2k-8.2/data/POTENTIAL
       &END POTENTIAL
     &END KIND
     &KIND H
       BASIS_SET DZVP-MOLOPT-SR-GTH
       POTENTIAL GTH-PBE-q1
       &POTENTIAL
 1
  0.2000000000000000E+00 2 -0.4178900440000000E+01  0.7244633100000000E+00
 0
         # Potential name:  GTH-PBE-Q1  for symbol:  H
         # Potential read from the potential filename: /home/lujunbo/bin/cp2k-8.2/data/POTENTIAL
       &END POTENTIAL
     &END KIND
     &TOPOLOGY
       COORD_FILE_NAME init.xyz
       COORD_FILE_FORMAT  XYZ
       NUMBER_OF_ATOMS  8
       MULTIPLE_UNIT_CELL  1 1 1
     &END TOPOLOGY
   &END SUBSYS
 &END FORCE_EVAL
