 # Version information for this restart file 
 # current date 2021-10-25 10:12:15.266
 # current working dir /home/lujunbo/WORK/deepmd/c2h6/mtd/train_4_sys/cp2k_md/sys_3
 # Program compiled at                              Tue Jun  1 15:18:23 CST 2021
 # Program compiled on                                                       mgr
 # Program compiled for                                                    local
 # Source code revision number                                       git:310b7ab
 &GLOBAL
   PRINT_LEVEL  LOW
   PROJECT_NAME test
   RUN_TYPE  MD
 &END GLOBAL
 &MOTION
   &MD
     ENSEMBLE  NVT
     STEPS  1000
     TIMESTEP     4.9999999999999994E-01
     STEP_START_VAL  500
     TIME_START_VAL     2.4999999999999795E+02
     ECONS_START_VAL    -1.4949010284259089E+01
     TEMPERATURE     5.0000000000000007E+01
     &THERMOSTAT
       TYPE  NOSE
       REGION  GLOBAL
       &NOSE
         LENGTH  3
         TIMECON     4.9999999999999993E+01
         &COORD
               2.0156606484650966E-01    3.3675348168210779E+00   -4.2340028684354918E+00
         &END COORD
         &VELOCITY
              -6.0183707609428718E-06    1.0035800714085762E-04   -9.6629711932308263E-04
         &END VELOCITY
         &MASS
               1.4207636828499359E+04    6.7655413469044561E+02    6.7655413469044561E+02
         &END MASS
         &FORCE
               3.1487088860120094E-08   -2.3327941888148065E-07   -2.2396832580313586E-07
         &END FORCE
       &END NOSE
     &END THERMOSTAT
     &AVERAGES  T
       &RESTART_AVERAGES
         ITIMES_START  1
         AVECPU     2.8095772172808653E+00
         AVEHUGONIOT     0.0000000000000000E+00
         AVETEMP_BARO     0.0000000000000000E+00
         AVEPOT    -1.4951775848569847E+01
         AVEKIN     1.6088702166748743E-03
         AVETEMP     4.8384802494480198E+01
         AVEKIN_QM     0.0000000000000000E+00
         AVETEMP_QM     0.0000000000000000E+00
         AVEVOL     6.7483345830899971E+03
         AVECELL_A     1.8897261328856420E+01
         AVECELL_B     1.8897261328856420E+01
         AVECELL_C     1.8897261328856420E+01
         AVEALPHA     9.0000000000000000E+01
         AVEBETA     9.0000000000000000E+01
         AVEGAMMA     9.0000000000000000E+01
         AVE_ECONS    -6.1465648588882282E-01
         AVE_PRESS     0.0000000000000000E+00
         AVE_PXX     0.0000000000000000E+00
       &END RESTART_AVERAGES
     &END AVERAGES
   &END MD
   &FREE_ENERGY
     &METADYN
       USE_PLUMED  T
       PLUMED_INPUT_FILE ./plumed.dat
       MIN_DISP     0.0000000000000000E+00
       OLD_HILL_NUMBER  0
       OLD_HILL_STEP  0
       STEP_START_VAL  0
       NHILLS_START_VAL  0
     &END METADYN
   &END FREE_ENERGY
   &PRINT
     &TRAJECTORY  SILENT
       &EACH
         MD  1
       &END EACH
     &END TRAJECTORY
     &CELL  SILENT
       &EACH
         MD  1
       &END EACH
     &END CELL
     &VELOCITIES  SILENT
       &EACH
         MD  1
       &END EACH
     &END VELOCITIES
     &FORCES  SILENT
       &EACH
         MD  1
       &END EACH
     &END FORCES
     &RESTART  SILENT
       &EACH
         MD  5
       &END EACH
     &END RESTART
   &END PRINT
 &END MOTION
 &FORCE_EVAL
   METHOD  QS
   &DFT
     BASIS_SET_FILE_NAME /home/lujunbo/bin/cp2k-8.2/data/BASIS_MOLOPT
     POTENTIAL_FILE_NAME /home/lujunbo/bin/cp2k-8.2/data/POTENTIAL
     WFN_RESTART_FILE_NAME ./cp2k-RESTART.wfn
     MULTIPLICITY  1
     CHARGE  0
     &SCF
       MAX_SCF  100
       EPS_SCF     9.9999999999999995E-07
       CHOLESKY  INVERSE_DBCSR
       SCF_GUESS  RESTART
       &OT  T
         MINIMIZER  CG
         PRECONDITIONER  FULL_ALL
       &END OT
       &OUTER_SCF  T
         EPS_SCF     9.9999999999999995E-07
         MAX_SCF  6
       &END OUTER_SCF
     &END SCF
     &QS
       EXTRAPOLATION  ASPC
       METHOD  GPW
     &END QS
     &MGRID
       NGRIDS  4
       CUTOFF     4.0000000000000000E+02
       REL_CUTOFF     5.0000000000000000E+01
     &END MGRID
     &XC
       DENSITY_CUTOFF     1.0000000000000000E-10
       GRADIENT_CUTOFF     1.0000000000000000E-10
       TAU_CUTOFF     1.0000000000000000E-10
       &XC_FUNCTIONAL  NO_SHORTCUT
         &PBE  T
         &END PBE
       &END XC_FUNCTIONAL
     &END XC
     &POISSON
       PERIODIC  XYZ
     &END POISSON
   &END DFT
   &SUBSYS
     &CELL
       A     1.0000000000000002E+01    0.0000000000000000E+00    0.0000000000000000E+00
       B     0.0000000000000000E+00    1.0000000000000002E+01    0.0000000000000000E+00
       C     0.0000000000000000E+00    0.0000000000000000E+00    1.0000000000000002E+01
       PERIODIC  XYZ
       MULTIPLE_UNIT_CELL  1 1 1
     &END CELL
     &COORD
C   -2.7594443263368551E+00    1.2744071157213075E+00    2.5635990571119377E-01
C   -1.3082602345891530E+00    1.2930749458696802E+00   -2.5741383821184566E-01
H   -2.9594574625662520E+00    4.6963253492146062E-01    9.9213281957681632E-01
H   -3.0648239019477064E+00    2.2323414635724514E+00    7.3677366537695066E-01
H   -3.5076826323353636E+00    1.0934158870866062E+00   -5.5191961346899521E-01
H   -5.5825739759982596E-01    1.3854222458651588E+00    5.5574084357165021E-01
H   -1.0183267868541317E+00    3.6695301409420794E-01   -7.9758150904841063E-01
H   -1.0897586340752827E+00    2.1363099332852418E+00   -9.4512377566720307E-01
     &END COORD
     &VELOCITY
          -1.0414327155896213E-04   -1.6215762463337658E-06    9.2987240488678880E-05
           7.6482563077046758E-05    2.8245550390433023E-05   -7.1743191134171404E-05
          -1.3559905502911692E-04    6.4424298848649527E-06   -1.4049226801275230E-04
          -2.6713603108382444E-04    1.4628804019252263E-04    3.4774990492448485E-04
          -5.7809828423461575E-04   -1.9806428128764353E-04    1.6368759573824406E-04
           5.9289744455340667E-04   -1.7019965967791936E-04    3.3360610608459478E-05
           2.1973901985873829E-04   -3.5523483131548656E-04   -3.7027927107788784E-04
           3.8100586611726527E-04    3.2374397549634888E-04   -2.9176438307644971E-04
     &END VELOCITY
     &KIND C
       BASIS_SET DZVP-MOLOPT-SR-GTH
       POTENTIAL GTH-PBE-q4
       &POTENTIAL
 2 2
  0.3384712400000000E+00 2 -0.8803673979999999E+01  0.1339210850000000E+01
 2
  0.3025757500000000E+00 1  0.9622486650000001E+01
  0.2915069400000000E+00 0
         # Potential name:  GTH-PBE-Q4  for symbol:  C
         # Potential read from the potential filename: /home/lujunbo/bin/cp2k-8.2/data/POTENTIAL
       &END POTENTIAL
     &END KIND
     &KIND H
       BASIS_SET DZVP-MOLOPT-SR-GTH
       POTENTIAL GTH-PBE-q1
       &POTENTIAL
 1
  0.2000000000000000E+00 2 -0.4178900440000000E+01  0.7244633100000000E+00
 0
         # Potential name:  GTH-PBE-Q1  for symbol:  H
         # Potential read from the potential filename: /home/lujunbo/bin/cp2k-8.2/data/POTENTIAL
       &END POTENTIAL
     &END KIND
     &TOPOLOGY
       COORD_FILE_NAME init.xyz
       COORD_FILE_FORMAT  XYZ
       NUMBER_OF_ATOMS  8
       MULTIPLE_UNIT_CELL  1 1 1
     &END TOPOLOGY
   &END SUBSYS
 &END FORCE_EVAL
