 # Version information for this restart file 
 # current date 2021-10-25 10:36:54.613
 # current working dir /home/lujunbo/WORK/deepmd/c2h6/mtd/train_4_sys/cp2k_md/sys_3
 # Program compiled at                              Tue Jun  1 15:18:23 CST 2021
 # Program compiled on                                                       mgr
 # Program compiled for                                                    local
 # Source code revision number                                       git:310b7ab
 &GLOBAL
   PRINT_LEVEL  LOW
   PROJECT_NAME test
   RUN_TYPE  MD
 &END GLOBAL
 &MOTION
   &MD
     ENSEMBLE  NVT
     STEPS  1000
     TIMESTEP     4.9999999999999994E-01
     STEP_START_VAL  990
     TIME_START_VAL     4.9499999999999613E+02
     ECONS_START_VAL    -1.4949010284259089E+01
     TEMPERATURE     5.0000000000000007E+01
     &THERMOSTAT
       TYPE  NOSE
       REGION  GLOBAL
       &NOSE
         LENGTH  3
         TIMECON     4.9999999999999993E+01
         &COORD
               2.5254313056477268E-01    1.2866714530213523E+00   -1.5116022840089389E+00
         &END COORD
         &VELOCITY
              -1.3036230944661240E-04    5.2345593998955628E-04    2.1406321840011474E-04
         &END VELOCITY
         &MASS
               1.4207636828499359E+04    6.7655413469044561E+02    6.7655413469044561E+02
         &END MASS
         &FORCE
               6.6065099858306921E-08    1.2284091080892065E-07    3.9966065709929666E-08
         &END FORCE
       &END NOSE
     &END THERMOSTAT
     &AVERAGES  T
       &RESTART_AVERAGES
         ITIMES_START  1
         AVECPU     2.9127956309666234E+00
         AVEHUGONIOT     0.0000000000000000E+00
         AVETEMP_BARO     0.0000000000000000E+00
         AVEPOT    -1.4951858723446776E+01
         AVEKIN     1.5039737437014262E-03
         AVETEMP     4.5230169464056161E+01
         AVEKIN_QM     0.0000000000000000E+00
         AVETEMP_QM     0.0000000000000000E+00
         AVEVOL     6.7483345830899971E+03
         AVECELL_A     1.8897261328856384E+01
         AVECELL_B     1.8897261328856384E+01
         AVECELL_C     1.8897261328856384E+01
         AVEALPHA     9.0000000000000000E+01
         AVEBETA     9.0000000000000000E+01
         AVEGAMMA     9.0000000000000000E+01
         AVE_ECONS    -6.5031866348289213E-01
         AVE_PRESS     0.0000000000000000E+00
         AVE_PXX     0.0000000000000000E+00
       &END RESTART_AVERAGES
     &END AVERAGES
   &END MD
   &FREE_ENERGY
     &METADYN
       USE_PLUMED  T
       PLUMED_INPUT_FILE ./plumed.dat
       MIN_DISP     0.0000000000000000E+00
       OLD_HILL_NUMBER  0
       OLD_HILL_STEP  0
       STEP_START_VAL  0
       NHILLS_START_VAL  0
     &END METADYN
   &END FREE_ENERGY
   &PRINT
     &TRAJECTORY  SILENT
       &EACH
         MD  1
       &END EACH
     &END TRAJECTORY
     &CELL  SILENT
       &EACH
         MD  1
       &END EACH
     &END CELL
     &VELOCITIES  SILENT
       &EACH
         MD  1
       &END EACH
     &END VELOCITIES
     &FORCES  SILENT
       &EACH
         MD  1
       &END EACH
     &END FORCES
     &RESTART  SILENT
       &EACH
         MD  5
       &END EACH
     &END RESTART
   &END PRINT
 &END MOTION
 &FORCE_EVAL
   METHOD  QS
   &DFT
     BASIS_SET_FILE_NAME /home/lujunbo/bin/cp2k-8.2/data/BASIS_MOLOPT
     POTENTIAL_FILE_NAME /home/lujunbo/bin/cp2k-8.2/data/POTENTIAL
     WFN_RESTART_FILE_NAME ./cp2k-RESTART.wfn
     MULTIPLICITY  1
     CHARGE  0
     &SCF
       MAX_SCF  100
       EPS_SCF     9.9999999999999995E-07
       CHOLESKY  INVERSE_DBCSR
       SCF_GUESS  RESTART
       &OT  T
         MINIMIZER  CG
         PRECONDITIONER  FULL_ALL
       &END OT
       &OUTER_SCF  T
         EPS_SCF     9.9999999999999995E-07
         MAX_SCF  6
       &END OUTER_SCF
     &END SCF
     &QS
       EXTRAPOLATION  ASPC
       METHOD  GPW
     &END QS
     &MGRID
       NGRIDS  4
       CUTOFF     4.0000000000000000E+02
       REL_CUTOFF     5.0000000000000000E+01
     &END MGRID
     &XC
       DENSITY_CUTOFF     1.0000000000000000E-10
       GRADIENT_CUTOFF     1.0000000000000000E-10
       TAU_CUTOFF     1.0000000000000000E-10
       &XC_FUNCTIONAL  NO_SHORTCUT
         &PBE  T
         &END PBE
       &END XC_FUNCTIONAL
     &END XC
     &POISSON
       PERIODIC  XYZ
     &END POISSON
   &END DFT
   &SUBSYS
     &CELL
       A     1.0000000000000002E+01    0.0000000000000000E+00    0.0000000000000000E+00
       B     0.0000000000000000E+00    1.0000000000000002E+01    0.0000000000000000E+00
       C     0.0000000000000000E+00    0.0000000000000000E+00    1.0000000000000002E+01
       PERIODIC  XYZ
       MULTIPLE_UNIT_CELL  1 1 1
     &END CELL
     &COORD
C   -2.6902194632699650E+00    1.2708895520224617E+00    4.6525862528752560E-01
C   -1.4125028398143611E+00    1.3039926017221151E+00   -4.6576513413860310E-01
H   -2.8007392404797327E+00    3.1762968031829447E-01    9.6621920586693588E-01
H   -2.6325689217745802E+00    2.0472548858136741E+00    1.2356645682558629E+00
H   -3.6021914981235135E+00    1.4543619242141639E+00   -1.1305439014685303E-01
H   -5.0133209390418332E-01    1.0690926570636918E+00    9.1036690026106371E-02
H   -1.4918593304830987E+00    5.8514067421166616E-01   -1.2898659171726330E+00
H   -1.2776828273323473E+00    2.2978383810339267E+00   -9.0577793373803206E-01
     &END COORD
     &VELOCITY
           1.8071273058310406E-05   -6.2353385909006102E-06    1.0723764697672136E-04
           9.4322354290118760E-06    3.2557361265298628E-05   -1.0779987060481513E-04
           1.4858124825405485E-04    1.4030800093147914E-04   -6.4568719181432640E-04
           3.6926764043363765E-04   -1.8868151991024570E-05   -1.9586603633335511E-04
           2.6600450025498264E-04   -9.4079738444628489E-05   -3.7105660831159567E-05
          -7.1236803996302638E-04   -5.3385421455256705E-05   -9.2900288373258170E-05
          -2.9999293567393737E-04    1.0006244486758455E-04    5.6569430549448176E-04
          -2.4709096688481548E-04   -3.7605038645740872E-04    4.1336806162252490E-04
     &END VELOCITY
     &KIND C
       BASIS_SET DZVP-MOLOPT-SR-GTH
       POTENTIAL GTH-PBE-q4
       &POTENTIAL
 2 2
  0.3384712400000000E+00 2 -0.8803673979999999E+01  0.1339210850000000E+01
 2
  0.3025757500000000E+00 1  0.9622486650000001E+01
  0.2915069400000000E+00 0
         # Potential name:  GTH-PBE-Q4  for symbol:  C
         # Potential read from the potential filename: /home/lujunbo/bin/cp2k-8.2/data/POTENTIAL
       &END POTENTIAL
     &END KIND
     &KIND H
       BASIS_SET DZVP-MOLOPT-SR-GTH
       POTENTIAL GTH-PBE-q1
       &POTENTIAL
 1
  0.2000000000000000E+00 2 -0.4178900440000000E+01  0.7244633100000000E+00
 0
         # Potential name:  GTH-PBE-Q1  for symbol:  H
         # Potential read from the potential filename: /home/lujunbo/bin/cp2k-8.2/data/POTENTIAL
       &END POTENTIAL
     &END KIND
     &TOPOLOGY
       COORD_FILE_NAME init.xyz
       COORD_FILE_FORMAT  XYZ
       NUMBER_OF_ATOMS  8
       MULTIPLE_UNIT_CELL  1 1 1
     &END TOPOLOGY
   &END SUBSYS
 &END FORCE_EVAL
