 # Version information for this restart file 
 # current date 2021-09-10 20:34:16.299
 # current working dir /home/lujunbo/WORK/deepmd/co2/cutoff_400/cp2k_md
 # Program compiled at                              Tue Jun  1 15:18:23 CST 2021
 # Program compiled on                                                       mgr
 # Program compiled for                                                    local
 # Source code revision number                                       git:310b7ab
 &GLOBAL
   PRINT_LEVEL  LOW
   PROJECT_NAME test
   RUN_TYPE  MD
 &END GLOBAL
 &MOTION
   &MD
     ENSEMBLE  NVT
     STEPS  1000
     TIMESTEP     4.9999999999999994E-01
     STEP_START_VAL  400
     TIME_START_VAL     2.0000000000000011E+02
     ECONS_START_VAL    -3.7763186394093111E+01
     TEMPERATURE     5.0000000000000007E+01
     &THERMOSTAT
       TYPE  NOSE
       REGION  GLOBAL
       &NOSE
         LENGTH  3
         TIMECON     9.9999999999999986E+01
         &COORD
               7.8633223677794106E-01    1.2878708746942533E+00   -1.3916500644112852E+00
         &END COORD
         &VELOCITY
               8.9405920418879546E-06    2.8734940738829736E-04   -1.6347096297634754E-04
         &END VELOCITY
         &MASS
               1.6237299232570695E+04    2.7062165387617824E+03    2.7062165387617824E+03
         &END MASS
         &FORCE
              -3.2694166779571360E-08   -5.8030408733748255E-08    2.4059668076300614E-08
         &END FORCE
       &END NOSE
     &END THERMOSTAT
     &AVERAGES  T
       &RESTART_AVERAGES
         ITIMES_START  1
         AVECPU     1.4564251979207621E+00
         AVEHUGONIOT     0.0000000000000000E+00
         AVETEMP_BARO     0.0000000000000000E+00
         AVEPOT    -3.7764278396927494E+01
         AVEKIN     4.7181991416208745E-04
         AVETEMP     4.9662922422710174E+01
         AVEKIN_QM     0.0000000000000000E+00
         AVETEMP_QM     0.0000000000000000E+00
         AVEVOL     6.7483345830899962E+03
         AVECELL_A     1.8897261328856438E+01
         AVECELL_B     1.8897261328856438E+01
         AVECELL_C     1.8897261328856438E+01
         AVEALPHA     9.0000000000000000E+01
         AVEBETA     9.0000000000000000E+01
         AVEGAMMA     9.0000000000000000E+01
         AVE_ECONS    -2.5428319405006305E-01
         AVE_PRESS    -1.1660317091604593E+02
         AVE_PXX     2.0135451040204124E+01
       &END RESTART_AVERAGES
     &END AVERAGES
   &END MD
   &PRINT
     &TRAJECTORY  SILENT
       &EACH
         MD  1
       &END EACH
     &END TRAJECTORY
     &CELL  SILENT
       &EACH
         MD  1
       &END EACH
     &END CELL
     &VELOCITIES  SILENT
       &EACH
         MD  1
       &END EACH
     &END VELOCITIES
     &FORCES  SILENT
       &EACH
         MD  1
       &END EACH
     &END FORCES
     &STRESS  SILENT
       &EACH
         MD  1
       &END EACH
     &END STRESS
     &RESTART_HISTORY  SILENT
       &EACH
         MD  100
       &END EACH
     &END RESTART_HISTORY
   &END PRINT
 &END MOTION
 &FORCE_EVAL
   METHOD  QS
   STRESS_TENSOR  ANALYTICAL
   &DFT
     BASIS_SET_FILE_NAME /home/lujunbo/bin/cp2k-8.2/data/BASIS_MOLOPT
     POTENTIAL_FILE_NAME /home/lujunbo/bin/cp2k-8.2/data/POTENTIAL
     WFN_RESTART_FILE_NAME ./cp2k-RESTART.wfn
     MULTIPLICITY  1
     CHARGE  0
     &SCF
       MAX_SCF  100
       EPS_SCF     9.9999999999999995E-07
       CHOLESKY  INVERSE_DBCSR
       SCF_GUESS  RESTART
       &OT  T
         MINIMIZER  CG
         PRECONDITIONER  FULL_ALL
       &END OT
       &OUTER_SCF  T
         EPS_SCF     9.9999999999999995E-07
         MAX_SCF  6
       &END OUTER_SCF
     &END SCF
     &QS
       EXTRAPOLATION  ASPC
       METHOD  GPW
     &END QS
     &MGRID
       NGRIDS  4
       CUTOFF     4.0000000000000000E+02
       REL_CUTOFF     5.0000000000000000E+01
     &END MGRID
     &XC
       DENSITY_CUTOFF     1.0000000000000000E-10
       GRADIENT_CUTOFF     1.0000000000000000E-10
       TAU_CUTOFF     1.0000000000000000E-10
       &XC_FUNCTIONAL  NO_SHORTCUT
         &PBE  T
         &END PBE
       &END XC_FUNCTIONAL
     &END XC
     &POISSON
       PERIODIC  XYZ
     &END POISSON
   &END DFT
   &SUBSYS
     &CELL
       A     1.0000000000000002E+01    0.0000000000000000E+00    0.0000000000000000E+00
       B     0.0000000000000000E+00    1.0000000000000002E+01    0.0000000000000000E+00
       C     0.0000000000000000E+00    0.0000000000000000E+00    1.0000000000000002E+01
       PERIODIC  XYZ
       MULTIPLE_UNIT_CELL  1 1 1
     &END CELL
     &COORD
C    1.6129134520403224E-03    5.6247530935606633E-03    1.5516500668530246E-02
O   -1.7790786983382104E-02   -6.1893358118046216E-03   -1.1489997334111184E+00
O    1.7108099242723447E-02    8.7855354540100020E-04    1.1828422910029450E+00
     &END COORD
     &VELOCITY
          -9.4585662858750290E-06    1.7939094961138815E-05    8.2585924552514304E-07
          -8.2988001403064143E-06   -1.8080173701207667E-05    1.0166234087309253E-04
           8.6524073639336004E-07    7.4295560621067110E-06   -5.7240175891128825E-05
     &END VELOCITY
     &KIND O
       BASIS_SET DZVP-MOLOPT-GTH-q6
       POTENTIAL GTH-PBE-q6
       &POTENTIAL
 2 4
  0.2445543000000000E+00 2 -0.1666721480000000E+02  0.2487311320000000E+01
 2
  0.2209559200000000E+00 1  0.1833745811000000E+02
  0.2113324700000000E+00 0
         # Potential name:  GTH-PBE-Q6  for symbol:  O
         # Potential read from the potential filename: /home/lujunbo/bin/cp2k-8.2/data/POTENTIAL
       &END POTENTIAL
     &END KIND
     &KIND C
       BASIS_SET DZVP-MOLOPT-GTH-q4
       POTENTIAL GTH-PBE-q4
       &POTENTIAL
 2 2
  0.3384712400000000E+00 2 -0.8803673979999999E+01  0.1339210850000000E+01
 2
  0.3025757500000000E+00 1  0.9622486650000001E+01
  0.2915069400000000E+00 0
         # Potential name:  GTH-PBE-Q4  for symbol:  C
         # Potential read from the potential filename: /home/lujunbo/bin/cp2k-8.2/data/POTENTIAL
       &END POTENTIAL
     &END KIND
     &TOPOLOGY
       NUMBER_OF_ATOMS  3
       MULTIPLE_UNIT_CELL  1 1 1
     &END TOPOLOGY
   &END SUBSYS
 &END FORCE_EVAL
