 # Version information for this restart file 
 # current date 2021-09-10 20:41:19.513
 # current working dir /home/lujunbo/WORK/deepmd/co2/cutoff_400/cp2k_md
 # Program compiled at                              Tue Jun  1 15:18:23 CST 2021
 # Program compiled on                                                       mgr
 # Program compiled for                                                    local
 # Source code revision number                                       git:310b7ab
 &GLOBAL
   PRINT_LEVEL  LOW
   PROJECT_NAME test
   RUN_TYPE  MD
 &END GLOBAL
 &MOTION
   &MD
     ENSEMBLE  NVT
     STEPS  1000
     TIMESTEP     4.9999999999999994E-01
     STEP_START_VAL  700
     TIME_START_VAL     3.4999999999999363E+02
     ECONS_START_VAL    -3.7763186394093111E+01
     TEMPERATURE     5.0000000000000007E+01
     &THERMOSTAT
       TYPE  NOSE
       REGION  GLOBAL
       &NOSE
         LENGTH  3
         TIMECON     9.9999999999999986E+01
         &COORD
               6.5628840445305447E-01    2.6668554215777887E+00   -2.3460157269775626E+00
         &END COORD
         &VELOCITY
              -3.5928493525073245E-05    1.5624166001157970E-04   -2.0930736555796372E-04
         &END VELOCITY
         &MASS
               1.6237299232570695E+04    2.7062165387617824E+03    2.7062165387617824E+03
         &END MASS
         &FORCE
               7.8419429002224603E-09   -5.0764873968217687E-08   -3.4098557526931005E-08
         &END FORCE
       &END NOSE
     &END THERMOSTAT
     &AVERAGES  T
       &RESTART_AVERAGES
         ITIMES_START  1
         AVECPU     1.4368333290131503E+00
         AVEHUGONIOT     0.0000000000000000E+00
         AVETEMP_BARO     0.0000000000000000E+00
         AVEPOT    -3.7764339015894400E+01
         AVEKIN     4.3390923151878939E-04
         AVETEMP     4.5672511601560871E+01
         AVEKIN_QM     0.0000000000000000E+00
         AVETEMP_QM     0.0000000000000000E+00
         AVEVOL     6.7483345830899907E+03
         AVECELL_A     1.8897261328856420E+01
         AVECELL_B     1.8897261328856420E+01
         AVECELL_C     1.8897261328856420E+01
         AVEALPHA     9.0000000000000000E+01
         AVEBETA     9.0000000000000000E+01
         AVEGAMMA     9.0000000000000000E+01
         AVE_ECONS    -2.7116990546973951E-01
         AVE_PRESS    -7.7570806619029355E+01
         AVE_PXX     2.1732488487503975E+01
       &END RESTART_AVERAGES
     &END AVERAGES
   &END MD
   &PRINT
     &TRAJECTORY  SILENT
       &EACH
         MD  1
       &END EACH
     &END TRAJECTORY
     &CELL  SILENT
       &EACH
         MD  1
       &END EACH
     &END CELL
     &VELOCITIES  SILENT
       &EACH
         MD  1
       &END EACH
     &END VELOCITIES
     &FORCES  SILENT
       &EACH
         MD  1
       &END EACH
     &END FORCES
     &STRESS  SILENT
       &EACH
         MD  1
       &END EACH
     &END STRESS
     &RESTART_HISTORY  SILENT
       &EACH
         MD  100
       &END EACH
     &END RESTART_HISTORY
   &END PRINT
 &END MOTION
 &FORCE_EVAL
   METHOD  QS
   STRESS_TENSOR  ANALYTICAL
   &DFT
     BASIS_SET_FILE_NAME /home/lujunbo/bin/cp2k-8.2/data/BASIS_MOLOPT
     POTENTIAL_FILE_NAME /home/lujunbo/bin/cp2k-8.2/data/POTENTIAL
     WFN_RESTART_FILE_NAME ./cp2k-RESTART.wfn
     MULTIPLICITY  1
     CHARGE  0
     &SCF
       MAX_SCF  100
       EPS_SCF     9.9999999999999995E-07
       CHOLESKY  INVERSE_DBCSR
       SCF_GUESS  RESTART
       &OT  T
         MINIMIZER  CG
         PRECONDITIONER  FULL_ALL
       &END OT
       &OUTER_SCF  T
         EPS_SCF     9.9999999999999995E-07
         MAX_SCF  6
       &END OUTER_SCF
     &END SCF
     &QS
       EXTRAPOLATION  ASPC
       METHOD  GPW
     &END QS
     &MGRID
       NGRIDS  4
       CUTOFF     4.0000000000000000E+02
       REL_CUTOFF     5.0000000000000000E+01
     &END MGRID
     &XC
       DENSITY_CUTOFF     1.0000000000000000E-10
       GRADIENT_CUTOFF     1.0000000000000000E-10
       TAU_CUTOFF     1.0000000000000000E-10
       &XC_FUNCTIONAL  NO_SHORTCUT
         &PBE  T
         &END PBE
       &END XC_FUNCTIONAL
     &END XC
     &POISSON
       PERIODIC  XYZ
     &END POISSON
   &END DFT
   &SUBSYS
     &CELL
       A     1.0000000000000002E+01    0.0000000000000000E+00    0.0000000000000000E+00
       B     0.0000000000000000E+00    1.0000000000000002E+01    0.0000000000000000E+00
       C     0.0000000000000000E+00    0.0000000000000000E+00    1.0000000000000002E+01
       PERIODIC  XYZ
       MULTIPLE_UNIT_CELL  1 1 1
     &END CELL
     &COORD
C   -4.6405076861601715E-03    7.5010916135529880E-04    9.1589814520222801E-02
O   -1.2594381447338069E-02   -8.0843678009280984E-03   -1.0779206540143385E+00
O    3.4920088852765127E-03   -1.9518235818017948E-03    1.2596050207150160E+00
     &END COORD
     &VELOCITY
           2.4036989896956805E-05   -1.1139244651710610E-07   -5.8241690433085226E-08
          -7.4812210364383737E-05   -2.5393016826927054E-05    1.3930127311945236E-04
           3.3675562453002764E-05    1.9944505763404258E-05   -9.6584113712683416E-05
     &END VELOCITY
     &KIND O
       BASIS_SET DZVP-MOLOPT-GTH-q6
       POTENTIAL GTH-PBE-q6
       &POTENTIAL
 2 4
  0.2445543000000000E+00 2 -0.1666721480000000E+02  0.2487311320000000E+01
 2
  0.2209559200000000E+00 1  0.1833745811000000E+02
  0.2113324700000000E+00 0
         # Potential name:  GTH-PBE-Q6  for symbol:  O
         # Potential read from the potential filename: /home/lujunbo/bin/cp2k-8.2/data/POTENTIAL
       &END POTENTIAL
     &END KIND
     &KIND C
       BASIS_SET DZVP-MOLOPT-GTH-q4
       POTENTIAL GTH-PBE-q4
       &POTENTIAL
 2 2
  0.3384712400000000E+00 2 -0.8803673979999999E+01  0.1339210850000000E+01
 2
  0.3025757500000000E+00 1  0.9622486650000001E+01
  0.2915069400000000E+00 0
         # Potential name:  GTH-PBE-Q4  for symbol:  C
         # Potential read from the potential filename: /home/lujunbo/bin/cp2k-8.2/data/POTENTIAL
       &END POTENTIAL
     &END KIND
     &TOPOLOGY
       NUMBER_OF_ATOMS  3
       MULTIPLE_UNIT_CELL  1 1 1
     &END TOPOLOGY
   &END SUBSYS
 &END FORCE_EVAL
