 # Version information for this restart file 
 # current date 2021-09-10 20:36:38.133
 # current working dir /home/lujunbo/WORK/deepmd/co2/cutoff_400/cp2k_md
 # Program compiled at                              Tue Jun  1 15:18:23 CST 2021
 # Program compiled on                                                       mgr
 # Program compiled for                                                    local
 # Source code revision number                                       git:310b7ab
 &GLOBAL
   PRINT_LEVEL  LOW
   PROJECT_NAME test
   RUN_TYPE  MD
 &END GLOBAL
 &MOTION
   &MD
     ENSEMBLE  NVT
     STEPS  1000
     TIMESTEP     4.9999999999999994E-01
     STEP_START_VAL  500
     TIME_START_VAL     2.4999999999999795E+02
     ECONS_START_VAL    -3.7763186394093111E+01
     TEMPERATURE     5.0000000000000007E+01
     &THERMOSTAT
       TYPE  NOSE
       REGION  GLOBAL
       &NOSE
         LENGTH  3
         TIMECON     9.9999999999999986E+01
         &COORD
               7.7486164057818774E-01    1.8459346195722606E+00   -1.6909430443022826E+00
         &END COORD
         &VELOCITY
              -1.2293751314809026E-05    2.4811483592451371E-04   -1.3347611562110256E-04
         &END VELOCITY
         &MASS
               1.6237299232570695E+04    2.7062165387617824E+03    2.7062165387617824E+03
         &END MASS
         &FORCE
              -2.7556608379777185E-08   -5.7603195921762861E-08    3.0509579557432934E-09
         &END FORCE
       &END NOSE
     &END THERMOSTAT
     &AVERAGES  T
       &RESTART_AVERAGES
         ITIMES_START  1
         AVECPU     1.4488081598803402E+00
         AVEHUGONIOT     0.0000000000000000E+00
         AVETEMP_BARO     0.0000000000000000E+00
         AVEPOT    -3.7764311812392634E+01
         AVEKIN     4.5347292681485046E-04
         AVETEMP     4.7731751266158938E+01
         AVEKIN_QM     0.0000000000000000E+00
         AVETEMP_QM     0.0000000000000000E+00
         AVEVOL     6.7483345830899971E+03
         AVECELL_A     1.8897261328856420E+01
         AVECELL_B     1.8897261328856420E+01
         AVECELL_C     1.8897261328856420E+01
         AVEALPHA     9.0000000000000000E+01
         AVEBETA     9.0000000000000000E+01
         AVEGAMMA     9.0000000000000000E+01
         AVE_ECONS    -2.6299262668898732E-01
         AVE_PRESS    -7.4415501358728349E+01
         AVE_PXX     2.0533691787399142E+01
       &END RESTART_AVERAGES
     &END AVERAGES
   &END MD
   &PRINT
     &TRAJECTORY  SILENT
       &EACH
         MD  1
       &END EACH
     &END TRAJECTORY
     &CELL  SILENT
       &EACH
         MD  1
       &END EACH
     &END CELL
     &VELOCITIES  SILENT
       &EACH
         MD  1
       &END EACH
     &END VELOCITIES
     &FORCES  SILENT
       &EACH
         MD  1
       &END EACH
     &END FORCES
     &STRESS  SILENT
       &EACH
         MD  1
       &END EACH
     &END STRESS
     &RESTART_HISTORY  SILENT
       &EACH
         MD  100
       &END EACH
     &END RESTART_HISTORY
   &END PRINT
 &END MOTION
 &FORCE_EVAL
   METHOD  QS
   STRESS_TENSOR  ANALYTICAL
   &DFT
     BASIS_SET_FILE_NAME /home/lujunbo/bin/cp2k-8.2/data/BASIS_MOLOPT
     POTENTIAL_FILE_NAME /home/lujunbo/bin/cp2k-8.2/data/POTENTIAL
     WFN_RESTART_FILE_NAME ./cp2k-RESTART.wfn
     MULTIPLICITY  1
     CHARGE  0
     &SCF
       MAX_SCF  100
       EPS_SCF     9.9999999999999995E-07
       CHOLESKY  INVERSE_DBCSR
       SCF_GUESS  RESTART
       &OT  T
         MINIMIZER  CG
         PRECONDITIONER  FULL_ALL
       &END OT
       &OUTER_SCF  T
         EPS_SCF     9.9999999999999995E-07
         MAX_SCF  6
       &END OUTER_SCF
     &END SCF
     &QS
       EXTRAPOLATION  ASPC
       METHOD  GPW
     &END QS
     &MGRID
       NGRIDS  4
       CUTOFF     4.0000000000000000E+02
       REL_CUTOFF     5.0000000000000000E+01
     &END MGRID
     &XC
       DENSITY_CUTOFF     1.0000000000000000E-10
       GRADIENT_CUTOFF     1.0000000000000000E-10
       TAU_CUTOFF     1.0000000000000000E-10
       &XC_FUNCTIONAL  NO_SHORTCUT
         &PBE  T
         &END PBE
       &END XC_FUNCTIONAL
     &END XC
     &POISSON
       PERIODIC  XYZ
     &END POISSON
   &END DFT
   &SUBSYS
     &CELL
       A     1.0000000000000002E+01    0.0000000000000000E+00    0.0000000000000000E+00
       B     0.0000000000000000E+00    1.0000000000000002E+01    0.0000000000000000E+00
       C     0.0000000000000000E+00    0.0000000000000000E+00    1.0000000000000002E+01
       PERIODIC  XYZ
       MULTIPLE_UNIT_CELL  1 1 1
     &END CELL
     &COORD
C   -1.2858912386388731E-03    2.0114703509959970E-03    5.3348268469723480E-02
O    1.1375470629084455E-02    4.4152128040224412E-04   -1.1132292566232869E+00
O   -1.5997586370027024E-02   -1.0585608504584414E-02    1.2165124623580847E+00
     &END COORD
     &VELOCITY
           1.4395620658928152E-05    4.9167656663002349E-06    4.4471736147154378E-05
          -3.7612883343324192E-05   -1.3487177653659031E-05    1.0589330968078064E-04
           3.4177848706160460E-05   -2.7360513887987125E-06   -3.9860605692884209E-05
     &END VELOCITY
     &KIND O
       BASIS_SET DZVP-MOLOPT-GTH-q6
       POTENTIAL GTH-PBE-q6
       &POTENTIAL
 2 4
  0.2445543000000000E+00 2 -0.1666721480000000E+02  0.2487311320000000E+01
 2
  0.2209559200000000E+00 1  0.1833745811000000E+02
  0.2113324700000000E+00 0
         # Potential name:  GTH-PBE-Q6  for symbol:  O
         # Potential read from the potential filename: /home/lujunbo/bin/cp2k-8.2/data/POTENTIAL
       &END POTENTIAL
     &END KIND
     &KIND C
       BASIS_SET DZVP-MOLOPT-GTH-q4
       POTENTIAL GTH-PBE-q4
       &POTENTIAL
 2 2
  0.3384712400000000E+00 2 -0.8803673979999999E+01  0.1339210850000000E+01
 2
  0.3025757500000000E+00 1  0.9622486650000001E+01
  0.2915069400000000E+00 0
         # Potential name:  GTH-PBE-Q4  for symbol:  C
         # Potential read from the potential filename: /home/lujunbo/bin/cp2k-8.2/data/POTENTIAL
       &END POTENTIAL
     &END KIND
     &TOPOLOGY
       NUMBER_OF_ATOMS  3
       MULTIPLE_UNIT_CELL  1 1 1
     &END TOPOLOGY
   &END SUBSYS
 &END FORCE_EVAL
