 # Version information for this restart file 
 # current date 2021-09-10 20:47:57.728
 # current working dir /home/lujunbo/WORK/deepmd/co2/cutoff_400/cp2k_md
 # Program compiled at                              Tue Jun  1 15:18:23 CST 2021
 # Program compiled on                                                       mgr
 # Program compiled for                                                    local
 # Source code revision number                                       git:310b7ab
 &GLOBAL
   PRINT_LEVEL  LOW
   PROJECT_NAME test
   RUN_TYPE  MD
 &END GLOBAL
 &MOTION
   &MD
     ENSEMBLE  NVT
     STEPS  1000
     TIMESTEP     4.9999999999999994E-01
     STEP_START_VAL  980
     TIME_START_VAL     4.8999999999999591E+02
     ECONS_START_VAL    -3.7763186394093111E+01
     TEMPERATURE     5.0000000000000007E+01
     &THERMOSTAT
       TYPE  NOSE
       REGION  GLOBAL
       &NOSE
         LENGTH  3
         TIMECON     9.9999999999999986E+01
         &COORD
               4.6144177554111404E-01    3.3280772278837798E+00   -4.2537448026033129E+00
         &END COORD
         &VELOCITY
              -1.8425020035135142E-05    6.5446638040053879E-05   -4.6877933688131262E-04
         &END VELOCITY
         &MASS
               1.6237299232570695E+04    2.7062165387617824E+03    2.7062165387617824E+03
         &END MASS
         &FORCE
              -2.3336779833079371E-08   -5.6473125670334273E-08   -5.4226751419359239E-08
         &END FORCE
       &END NOSE
     &END THERMOSTAT
     &AVERAGES  T
       &RESTART_AVERAGES
         ITIMES_START  1
         AVECPU     1.4326500267265556E+00
         AVEHUGONIOT     0.0000000000000000E+00
         AVETEMP_BARO     0.0000000000000000E+00
         AVEPOT    -3.7764339022890944E+01
         AVEKIN     4.4330620718753224E-04
         AVETEMP     4.6661620495944163E+01
         AVEKIN_QM     0.0000000000000000E+00
         AVETEMP_QM     0.0000000000000000E+00
         AVEVOL     6.7483345830899971E+03
         AVECELL_A     1.8897261328856384E+01
         AVECELL_B     1.8897261328856384E+01
         AVECELL_C     1.8897261328856384E+01
         AVEALPHA     9.0000000000000000E+01
         AVEBETA     9.0000000000000000E+01
         AVEGAMMA     9.0000000000000000E+01
         AVE_ECONS    -2.6917679031483344E-01
         AVE_PRESS    -3.9011485984041293E+01
         AVE_PXX     2.1766231937580116E+01
       &END RESTART_AVERAGES
     &END AVERAGES
   &END MD
   &PRINT
     &TRAJECTORY  SILENT
       &EACH
         MD  1
       &END EACH
     &END TRAJECTORY
     &CELL  SILENT
       &EACH
         MD  1
       &END EACH
     &END CELL
     &VELOCITIES  SILENT
       &EACH
         MD  1
       &END EACH
     &END VELOCITIES
     &FORCES  SILENT
       &EACH
         MD  1
       &END EACH
     &END FORCES
     &STRESS  SILENT
       &EACH
         MD  1
       &END EACH
     &END STRESS
     &RESTART_HISTORY  SILENT
       &EACH
         MD  100
       &END EACH
     &END RESTART_HISTORY
   &END PRINT
 &END MOTION
 &FORCE_EVAL
   METHOD  QS
   STRESS_TENSOR  ANALYTICAL
   &DFT
     BASIS_SET_FILE_NAME /home/lujunbo/bin/cp2k-8.2/data/BASIS_MOLOPT
     POTENTIAL_FILE_NAME /home/lujunbo/bin/cp2k-8.2/data/POTENTIAL
     WFN_RESTART_FILE_NAME ./cp2k-RESTART.wfn
     MULTIPLICITY  1
     CHARGE  0
     &SCF
       MAX_SCF  100
       EPS_SCF     9.9999999999999995E-07
       CHOLESKY  INVERSE_DBCSR
       SCF_GUESS  RESTART
       &OT  T
         MINIMIZER  CG
         PRECONDITIONER  FULL_ALL
       &END OT
       &OUTER_SCF  T
         EPS_SCF     9.9999999999999995E-07
         MAX_SCF  6
       &END OUTER_SCF
     &END SCF
     &QS
       EXTRAPOLATION  ASPC
       METHOD  GPW
     &END QS
     &MGRID
       NGRIDS  4
       CUTOFF     4.0000000000000000E+02
       REL_CUTOFF     5.0000000000000000E+01
     &END MGRID
     &XC
       DENSITY_CUTOFF     1.0000000000000000E-10
       GRADIENT_CUTOFF     1.0000000000000000E-10
       TAU_CUTOFF     1.0000000000000000E-10
       &XC_FUNCTIONAL  NO_SHORTCUT
         &PBE  T
         &END PBE
       &END XC_FUNCTIONAL
     &END XC
     &POISSON
       PERIODIC  XYZ
     &END POISSON
   &END DFT
   &SUBSYS
     &CELL
       A     1.0000000000000002E+01    0.0000000000000000E+00    0.0000000000000000E+00
       B     0.0000000000000000E+00    1.0000000000000002E+01    0.0000000000000000E+00
       C     0.0000000000000000E+00    0.0000000000000000E+00    1.0000000000000002E+01
       PERIODIC  XYZ
       MULTIPLE_UNIT_CELL  1 1 1
     &END CELL
     &COORD
C   -5.6269779794876256E-03    2.9389325790324344E-03    1.8578234782996672E-01
O    2.0204581017331066E-02    3.8826522499623762E-03   -1.0023636414728392E+00
O   -1.9438211729376410E-02   -2.5624350058152901E-03    1.3718309244590989E+00
     &END COORD
     &VELOCITY
          -2.1740195333972706E-05    1.2292131072047588E-05    3.4684942301187439E-05
           3.4725191433793090E-05   -2.7620573485158009E-05   -2.9566577471877033E-05
          -3.4372368754833562E-05    2.4440728826802048E-05    1.1657252637854589E-04
     &END VELOCITY
     &KIND O
       BASIS_SET DZVP-MOLOPT-GTH-q6
       POTENTIAL GTH-PBE-q6
       &POTENTIAL
 2 4
  0.2445543000000000E+00 2 -0.1666721480000000E+02  0.2487311320000000E+01
 2
  0.2209559200000000E+00 1  0.1833745811000000E+02
  0.2113324700000000E+00 0
         # Potential name:  GTH-PBE-Q6  for symbol:  O
         # Potential read from the potential filename: /home/lujunbo/bin/cp2k-8.2/data/POTENTIAL
       &END POTENTIAL
     &END KIND
     &KIND C
       BASIS_SET DZVP-MOLOPT-GTH-q4
       POTENTIAL GTH-PBE-q4
       &POTENTIAL
 2 2
  0.3384712400000000E+00 2 -0.8803673979999999E+01  0.1339210850000000E+01
 2
  0.3025757500000000E+00 1  0.9622486650000001E+01
  0.2915069400000000E+00 0
         # Potential name:  GTH-PBE-Q4  for symbol:  C
         # Potential read from the potential filename: /home/lujunbo/bin/cp2k-8.2/data/POTENTIAL
       &END POTENTIAL
     &END KIND
     &TOPOLOGY
       NUMBER_OF_ATOMS  3
       MULTIPLE_UNIT_CELL  1 1 1
     &END TOPOLOGY
   &END SUBSYS
 &END FORCE_EVAL
